StringID   Type       x          y          demand     ReadyTime  DueDate    ServiceTime
D0         d              11.574    70.370      0.000      0.000     23.983      0.000
S0         f              11.574    70.370      0.000      0.000     23.983      0.000
S1         f              22.120    57.360      0.000      0.000     23.983      0.000
S2         f              43.240    47.490      0.000      0.000     23.983      0.000
C0         c              85.957    26.059      0.051     10.418     10.975      0.100
C1         c              59.606    56.082      0.085     10.112     10.715      0.100
C2         c               4.357    78.444      0.081     10.594     11.198      0.133
C3         c              90.597    36.217      0.069     15.222     15.708      0.050
C4         c              83.249    68.447      0.061     15.595     16.012      0.133

Q Vehicle fuel tank capacity /122.7200/
C Vehicle load capacity /1.0700/
r fuel consumption rate /0.4854/
g inverse refueling rate /0.0074/
v average Velocity /36.9100/
gv charging speed /136.0200/

--------------------
instance_id /207/
number of clusters /5/
working_startTime (hour) /8.00/
working_endTime (hour) /20.52/
instance_endTime (hour) /23.98/
service_time_type /random/
demand_type /random/
instance_type /C/
instance x range /[0.0, 100.0]/
instance y range /[0.0, 100.0]/
cs_time_to_depot (hour)/[0.45373838717743736,1.0584392624867316]/
